NAME : mr61
COMMENT : 61-city problem (DISC)
TYPE : TSP
DIMENSION : 61
EDGE_WEIGHT_TYPE : EUC_2D
NODE_COORD_SECTION
1 83 35
2 19 97
3 88 13
4 50 67
5 97 58
6 1 73
7 93 45
8 63 48
9 31 25
10 35 13
11 15 84
12 49 66
13 89 35
14 46 83
15 48 80
16 89 48
17 67 44
18 9 13
19 3 98
20 73 65
21 72 21
22 4 67
23 47 92
24 37 2
25 60 2
26 73 61
27 20 39
28 53 81
29 30 36
30 14 90
31 96 69
32 61 62
33 92 91
34 46 63
35 5 15
36 13 91
37 34 57
38 45 87
39 43 91
40 55 7
41 77 13
42 93 100
43 75 23
44 30 52
45 20 18
46 27 70
47 73 45
48 46 23
49 18 47
50 65 88
51 2 42
52 77 32
53 26 87
54 27 22
55 49 34
56 33 81
57 38 79
58 10 42
59 4 53
60 19 98
61 14 35
EOF
